benchmarks/bfuzz0/314851033911289233043179615718788120741.smt2
(set-logic QF_FP)
(declare-const x0 (_ FloatingPoint 11 53))
(declare-const x1 (_ FloatingPoint 11 53))
(declare-const x2 (_ FloatingPoint 11 53))
(declare-const x3 (_ FloatingPoint 11 53))
(declare-const x4 (_ FloatingPoint 11 53))
(declare-const x5 (_ FloatingPoint 11 53))
(declare-const x6 (_ FloatingPoint 11 53))
(declare-const x7 (_ FloatingPoint 11 53))
(declare-const x8 (_ FloatingPoint 11 53))
(declare-const x9 (_ FloatingPoint 11 53))
(declare-const x10 (_ FloatingPoint 11 53))
(assert (fp.lt (fp.neg x4) (fp.mul RNE x6 x10)))
(assert (fp.lt (fp.div RNE x4 x2) (fp.sub RNE x4 x10)))
(assert (fp.geq (fp.div RNE x0 x9) (fp.add RNE x4 x8)))
(assert (fp.leq (fp.add RNE x6 x1) (fp.div RNE x9 x3)))
(assert (fp.geq (fp.sub RNE x8 x8) (fp.div RNE x1 x2)))
(assert (fp.lt (fp.neg x0) (fp.neg x0)))
(check-sat)
