db/data/314851033911289233043179615718788120741.z3.out
unsat
-------------------
.124282810
